NAME: random_points
TYPE: TSP
DIMENSION: 15
EDGE_WEIGHT_TYPE: EUC_2D
NODE_COORD_SECTION
1 932 78
2 694 379
3 856 491
4 797 584
5 818 629
6 204 1000
7 817 650
8 782 264
9 373 97
10 696 882
11 754 20
12 746 30
13 494 270
14 11 666
15 949 901
EOF
